
 102   30
  10   10   10   10   10   10   10   10   10   10   10   10   10   10   10   10   10   10   10   10   10   10   10   10   10   10   10   10   10   10

   0   0   0   0   0   0   0   0   0   0   0   0   0   0   0   0   0   0   0   0   0   0   0   0   0   0   0   0   0   0   0  26 2 3 4 5 6 7 8 9 10 11 12 13 14 16 17 18 19 21 23 25 26 27 28 33 36 50 
   9   0   0   0   0   0   0   0   0   0   0   0   0   0   0   0   0   0   3   0   0   0   0   0   0   1   0   0   0   0   0  22 101 99 83 72 70 63 59 58 54 53 52 51 49 45 44 43 39 38 37 34 32 31 
   4   0   0   0   1   2   0   0   0   0   0   0   0   0   0   0   0   0   0   0   0   0   0   0   0   0   0   0   0   0   0  18 99 83 71 70 68 58 54 51 49 48 45 43 42 40 38 37 31 22 
   9   0   0   0   0   4   0   1   0   0   0   0   0   3   0   1   0   2   0   0   0   0   0   0   0   0   0   0   0   0   0  16 101 99 71 70 60 57 56 54 51 47 46 44 42 40 29 20 
   5   0   0   1   7   0   0   0   0   0   1   0   0   5   0   4   0   0   0   0   2   0   0   0   0   0   0   0   0   0   0   9 101 83 72 61 58 49 43 22 15 
   1   0   0   0   0   0   0   0   0   0   0   0   0   0   0   0   0   0   0   0   0   0   0   0   0   8   0   0   0   0   0  15 71 63 61 59 57 53 52 51 49 47 46 40 35 32 30 
   5   0   0   0   0   0   0   0   0   0   9   0   0   0   0   0   0   0   0   2   0   0   0   1   0   0   0   0   0   0   0  12 99 88 83 72 70 54 49 47 40 32 29 24 
   4   1   0   0   0   0   0   0   0   0   0   2   2   0   0   0   0   9   0   0   0   0   0   0   0   9   0   0   1   0   0   9 99 71 69 56 49 47 40 32 31 
   5   0   0   0   0   0   0   0   0   0   4   7   0   0   0   0   0   0   0   0   0   0   0   0   0   0   0   0   0   0   0  12 101 99 84 83 71 70 67 58 49 39 38 31 
   4   0   0   3   0   0   0   0   2   0   0   0   0   0   1   0   0   0   0   0   0   0   3   0   0   0   0   0   0   0   0  19 97 89 88 87 85 84 83 82 72 71 70 68 67 65 58 57 55 43 42 
   1   0   0   0   0   0   0   0   0   0   8   0   0   0   0   0   0   0  10   5   3   0   0   0   0   0   1   0   0   0   0  13 101 85 71 70 68 67 65 64 63 59 58 43 31 
   3   0   0   0   0   0   0   8   0   0   0   0   8   0   0   0   0   0   0   0   0   0   0   0   0   0   0   0   0   0   0  12 89 85 84 83 69 64 58 56 53 51 38 31 
   9   0   1   0   0   0   0   4   0   0   0   7   0   0   0   0   0   0   0   0   0   0   0   0   0   0   0   1   6   0   0  20 101 97 96 95 93 87 83 71 70 67 65 63 62 61 60 59 57 52 49 48 
   6   0   0   0   0   0   0   3   9   0   0   0   0   0   0   6   0   7   0   0   0   4   0   0   2   0   0   0   0   0   0  14 91 90 87 86 85 84 83 61 59 57 52 51 46 39 
   6   0   0   0   0   0   0   0   0   0   0   0   6   0   0   0   0   0   0   0   8   0   0   0   0   0   0   0   0   0   0  14 100 99 96 89 88 87 85 84 69 67 47 44 41 35 
   7   0   0   0   0   0   0   0   0   0   6   4   0   0   8   0   1   0   0   0   0   6   0   0   4   0   0   0   0   0   0  19 101 99 98 97 96 91 87 85 83 70 68 67 66 64 63 62 56 44 43 
   7   0   3   0   0   0   0   0   0   0   3  10   0   0   0   0   0   0   0   0   0   0   0   0   0   3   0   0   0   2   0  17 99 94 93 90 87 86 85 84 70 69 68 64 61 57 51 46 44 
   3   0   0   0   0   0   0   0   0   0   0   0   0   0   0   0   0   0   0   0   6   0   0   0   0   4  10   3   0   0   1  15 101 99 91 90 86 85 84 83 67 65 61 58 47 46 45 
   5   0   0   6   0   0   0   0   0   0   0   0   7   0   0   0   0   0   0   0   7   7   0   0   0   0   0   0   0   0   0  22 100 99 97 96 92 91 90 88 87 86 85 84 83 77 70 69 68 64 63 61 58 56 
   6   0   4   0   0   0   0   0   0   0   0   0   0   0   0   0   0   0   0   0   0   0   0   0   0   0   6   0   6   4   0  20 100 98 96 95 93 92 91 90 88 87 84 69 68 67 65 63 62 61 49 45 
   7   0   0   0   0   0   0   0   0   0   0   0   0   0   0   0   0   0   0   0   0   0   6  10   0   0   0   0   0   0   0  16 99 97 93 89 87 84 83 81 68 67 64 61 57 56 48 46 
   5   0   0   0   0   0   0   0   0   0   0   0   0   0   0   0   0   0   4   0   0   0   0   0   0   0   9   0   0   5   0  16 98 97 91 87 86 85 84 81 69 66 63 62 60 56 53 52 
   8   7   0   0   9   0   0   0   0   0   0   0   0   0   0   0   0   0   0   0   0   0   0   0   0   0   3   0   8   0   0   7 87 83 80 65 64 63 31 
   4   0   0   0   0   0   0   0   0   0   0   0   0   0   0   9   0   0   0   0   7   0   0   0   0   6   0   0   0   0   5  16 101 97 96 94 93 91 90 89 87 85 84 69 64 59 51 44 
   7   0   0   0   0   0   0   0   0   0   0   0   0   0   0   0   0   0   4   0   0   0   0   0   0   0   0   0   0   0   0  24 100 99 98 97 96 95 94 93 92 90 89 88 87 84 82 81 79 77 68 67 66 65 62 60 
   2   7   0   0   6   0   0   0   0   0   0   0   0   0   0   0   0   9   0   0   0   0   0   5   7   0   0   0   0   6   4  24 100 99 98 97 95 94 93 92 91 90 88 83 82 81 79 76 72 69 68 67 64 62 61 57 
   5   0   0   0   0   0   0   0   0   0   0   4   0   0   0   0   0   0   0   0   0   0   0   0   0   0   0   0   0   0   0  14 97 94 93 89 84 82 81 77 76 68 67 64 46 43 
   5   0  10   0   0   0   1   0   0   0   0   0   0   0   0   0   0   0   0   0   0   7   0   0   7   0   0   0   0   0   0  14 97 95 91 89 88 87 84 82 80 79 60 58 57 51 
   2   0   0   0   0   0   7   0   0   1   0   6   0   0   0   0   0   0   0   0   0   0   0   0   0   4   5   0   0   0   6  15 96 94 93 89 87 85 82 81 77 75 68 65 64 62 43 
   6   0   0   0   0   5   0   0   0   0   0   0   0   0   0   0   0   0   7   0   7   0   0   0   0   7   0   0   0   0   0  21 100 99 98 96 94 93 92 91 90 87 86 85 82 79 77 75 74 69 68 67 65 
  10   0   0   0   0   0   0   0   0   0   0   0   0   8   0   8   0   2   0   0   0   0   8   9   0   0   0   9   0   0   0  13 97 94 93 92 91 86 82 81 76 62 61 57 46 
   6   0   0   0   0   8   0   0   9   7   5   0   0   0   6   0   0   0   0   0   0   0   0   0   0   0   8   0   0   0   7  18 100 97 93 92 91 90 89 87 84 82 81 77 75 74 68 67 65 60 
   9   7   0   0   0   0   6   5   0   0   0   0   0   0   0   0   0   0   0   0   0   0   0   6   0   0   0   0   0   0   0  18 100 95 93 92 90 88 86 82 81 79 77 76 75 74 69 68 67 64 
   1   0   0   0   0   0   0   0   0   0   0   0   0   0   5   0   3   0   0   0   0   0   0   0   8   0   0   0   6   0   7  14 96 95 93 91 89 86 82 80 79 77 66 65 64 62 
   1   0   0   0   0   0   0   0   0   0   0   6   0   0   0   0   0   0   0   0   3   0   0   0   0   0   0   0   0   0   0  14 98 95 94 93 92 90 86 78 77 76 74 70 68 64 
   8   0   0   4   0   0   0   0   0   6   0   0   0   8   0   0   4   0   0   0   0   0   0   0   0   0   0   0   0   0   0  12 97 96 95 94 93 85 80 79 74 66 64 59 
  10   0   0   6   0   0   0   0   6   0   0   0   0   5   0   0   0   0   0   0   0   0   0   0   0   0   3   0   0   0   0  13 96 94 91 89 88 81 80 79 78 77 75 64 62 
   1   0   0   0   0   6   0   4   0   0   0   0  10   0   0   0   0   0   0   0   0   0   0   0   0   9   0   0   0   6   0  13 100 98 97 91 90 88 87 81 80 79 77 73 66 
   5   6   0   0   0   0   6   0   0   0   0   5   0   0   0   0   0   0   0   0   7   5   0   0   0   0   0   0   0   0   0  11 98 97 96 94 93 89 77 75 74 65 64 
   2   0   0   0   0   5   7   0   4   0   0   0   0   0   0   0   0   0   0   0   0   0   0   0   0   0   0   0   0   0   0  11 95 93 87 84 81 79 78 77 75 74 65 
   3   5   0   0   0   0   0   0   0   0   0   0   0   0   0   0   0   0   0   0   0   0   0   0   0   0   0   0   0   0   0  11 97 94 91 86 82 81 80 78 77 73 66 
   3   0   0   0   0   0   0   0  10   0   0   0   0   0   0  10   0   0   0   0   0   0   0   0   6   0   0   8   0   0   0  10 98 96 93 92 91 79 77 76 74 73 
   2   0   0   0   0  10   0   0   0   0   0   0   0   0   0   0   0   0   0   0   0   0   0   0   0   0   0   0   0   0   0   9 100 95 92 90 86 80 74 73 69 
   1   7   0   0   0   0   0   0   0   9   6   7   0   7   0   0   0   0   0   0   0   0   0   0   0   0   0   0   0   0   0   9 95 82 81 80 79 77 75 74 65 
   4   4   0   5   0   0   0   0  10   0   0   0   4   0   0   0   0   0   0   0   0   3  10   0   0   0   0   0   0   8   0   9 97 89 82 81 80 78 75 74 64 
   8   0   0   0   0   0   0   0   0   0   0   0   0   0   0   0   0   0   0   0   0   0   0   0   0   0   0   0   0   0   0   9 100 98 96 95 88 79 75 74 73 
  10   0   0   0   0   0   0   0   0   0   0   0   0  10   0   7   0   0   5   0   0   0   0   0   0   4   0   0   0   0   5   9 95 93 92 81 79 77 76 74 73 
   6   0   0   0  10   0   0   0   0   0   5   0   0   0   0   0   0   0   0   0   0   0   0   0   0   0   0  10   0   0   0   8 94 92 90 88 79 74 73 66 
   3   0  10   0   0   0   0   0   0   0   0   0   0   0   0   0   0   0   4   0   0   0   0   0   0   0   0   0   0   0   4   8 94 85 81 79 78 77 76 74 
   1   0   0   0   0   0   0   0   0   0   0   0   0   0   0   0   0   0   0   0   0   0   0   0   0   0   0   0   0   0   0   8 98 93 92 82 80 78 76 75 
  10   0   0   0   0   0   0   0   0   0   0   9   0   4   0   0   0   0   4   0   0   0   5   0   8   8   0   0   0   0   8   6 98 92 81 76 67 62 
   2   0   0   0   0   0   0   0   0   0   0   0   0   0   0   0   0   0   0   0   0   0   0   3   0   0   0   0   0   0   0   7 100 92 80 79 78 77 74 
   4   0   0   0   0   0   0   3   0   0   0   0   8   0   5   0   0   0   0   0   0   0   0   0   0  10   0   0   0   0   0   6 96 95 94 78 75 67 
  10   6   4   0   0   0   0   0   4   0   0   0   0   0   0   0   0   0   0   0   0   0   0   0   0   0   0   0   9   0   0   5 97 82 75 65 64 
   4   0   0   0   0   0   0   0   0   0   0   0   6   0   0   0   0   7   0   0   0   0   0   0   0   0   0   5   0   0   0   5 99 81 74 66 64 
  10   0   6   0   0   0   0   0   0   0   6   0   0   0   6   0   0   0   0   5   0   0   0   0   5   0   0   0   0   0   0   4 82 74 73 65 
   9   0   0   8   0   0   0   7   0   0   8   0   0   6   0   0   0   0   0   0   0   0   0   0   0   0   4   0   5   0   0   4 78 77 74 73 
   4   0   0   0   0   0   0   0   0   0   0   3   0   0   0   0   0   0   0   0   0   0   0   0   0   0   0   0   0   0   0   4 94 93 81 73 
   2   8   0   0   0   0   0   5   6   0   0   0   0   0   0   0   0   0   0  10   9   0   0   0   0   0   0   0   0   4   0   4 82 77 76 73 
   4   0   0   5   0   0   0   8   0   0   0   0   5   0   0   0   0   0   0   0   0   6   0   0   0   0   9   0   6   0   0   3 78 76 64 
   9   7   0   0   0   0   0   0   0   0   0   0   0   0   0   0   0   0   0   0   0   0   0   0   0   0   0   0   0   0   0   2 73 66 
   7   0   0   0   0   0   0   0   0   0   0   0   0   0   4   0   0   0   0   0   0   0   0   0   0   0   0   0   0   0   6   2 74 73 
  10   0   0   0   0   0   0   0   0   0   0   6   0   0   0   0   0   0   0   6   0   0   0   6   7   0   0   0   0   0   0   2 89 79 
   1   0   0   6   0   0   6   0   6   0   0   0   0   0   0   0   0   0   0   0   0   0   7   0   7   0   5   0   0   0   0   1 73 
   4   0   0   0   0   0   0   0   0   0   0   0   0   5   0   5   0   0  10   0   0   0   0   0   0   0   0   0   4   0   0   1 76 
   8   0   0   0   0   0   0   0   0   0   0   0   0   0   0   0   9   0   0   0   5   0   0   0   0   0   0   0   0   0   0   1 75 
   5   0   0   0   0   0   0   0   4   0   4   0   0   0   5   0   0   0   0   0   0   3   0   0   0   0   0   0   0   0   0   1 73 
   3   0   0   0   0   0   0   0   0   0   0   0   0   9   0   0   7   0   6   0   0   0   0   0   0   0   0   5   0   0   0   1 80 
   5   0   0   0   0   0   7   0   0   0   0   0   0   0   0   0   0   0   0   6   6   0   0   0   0   0   0   0   0   0   0   1 78 
   5   0   0  10   0   0   0   9   0   0   0   0   0   0   0   0   0   0   0   0   0   0   0   0   0   0   0   0   0   0  10   1 75 
   2   0   0   0   0   0   0  10   0   0   0   0   0   0   8   0   0   0   0   0   0   0   0   0   0   0   0   0   0   6   0   1 91 
   2   7   0   0   6   0   0   0   0   0   0   0   0   0   0   0   0   4   0   0   0   0   0   6  10   0   0   0   0   0   0   1 75 
   9   6   0   5   0   0   7   8   0   4   0   0   0   0   0   0   0   3   0   4   9   9   0   0   5   0   0   0   0   0   0   1 102
   2   0   6   0   0   0   0   0   0   0   0   0   0   6   9   0   0   0   0   0   0   6   0   7   0   0   0   0   0   0  10   1 102
   6   0   0   0   0   8   0   0   5   0   0   0   5   0   0   6   0   0   0   0   0   5   0   0   0   0   5   0  10   0   5   1 102
   7   0   0   0   0   0   0   0   0   0   0   0   0   0   0   0   0   0   0   0   0   0   0   0   0   0   0   0   0   0   0   1 102
   7   0   0   0   0   5   0   0   0   0   0   6   0   0   0   0   0   0   0   0   0   0   3   0   0   0   0   0   0   0   0   1 102
   6   0   0   5   0   0   0   0   0   0   0   0   0   0   0   6   0   0   0   0   0   0   0   0   0   7   0   0   0   0   0   1 102
   6   0   0   0   0   0   6   7   0   0   0   0   0   6   0   0   0   0   0   0   0   9   0   0   0   4   0   0   0   0   0   1 102
   8   0   0   0   0   0   0   0   5   0   0   7   0   0   0   8   8   0   5   0   0   0   0   0   0   0   0   0   0   0   0   1 102
   2   0   0   0   0   0   0   0   0   0   0   0   0   8   0   0   0   0   0   0   0   4   0   0   3   0   0   0   0   0   0   1 102
   4   0   0   0   0   0   0   0   0   0   9   2   0   0   0   0   0   0   0   0   0   0   0   0   5   0   0   0   7   0   0   1 102
   1   0   0   0   0   0   0   0   0   0   0   6   0   0   0   3   0  10   0   0   0   0   0   0   0   0   0   0   0   0   0   1 102
   3   0   0   0   0   0   0   0   0   0   0   0   0   0   0   0   0   0   0   0   2   0   0   8   0   0   8   0   0   0   0   1 102
   4   8   0  10   0   3   0   8   0   0   0   0   0   7   0   5   0   0   0   0   0   0   0   0   0   0   0   0   0   0   0   1 102
  10   0   0  10   0   0   0   0   0   0   9   0   6   0   0   0   4   0   5   0  10   0   0   0   0   0   0   0   0   0   0   1 102
  10   0   0   0   0  10   0   0   0   9   0   0   0   5   0   0   0   0   8   5   0   0   0   0   0   0   0   8   0  10   0   1 102
   6   0   0   0   0   0   8   0   0   0   0   0   0   0   0   0   0   0   0   7   0   0   0   0   0   0   0   0   4   0   0   1 102
  10   4   0   0   5   0   0   0   0   0   9   0   0   0   0   0   0   0   0   0   5   0   0   5   0   0   0   0   0   0   0   1 102
   1   0   9   0   0   0   0   0   0   0   0   0   0   0   6   0   0   0   0   0   0   0   0   0   0   0   0   0   0   0   0   1 102
   3   0   0   0   0   0   0   0   0   0   0   0   0   0   0   0   8   0   0   0   0  10   0   0   0   0   7   0   0   0   0   1 102
   5   0   0   0   0   0   5   0   0   0   3   0   6   0   0   0  10   0   0  10   9   0   0   0   0   0   0   0   0   0   0   1 102
   1   0   0   0   0   0   0   0   0   6   0   0   0   0   0   0   0   0   0   0   5   0   0   0   0   0   0   0   0   0   0   1 102
   9   0   0   0   0   0   6   0   0   0   0   7   0   0   0   0   0   0   0   0   0   0   0   0   0   0   0   5   0   0   0   1 102
   4   0   0   0   0   0   0   0   0   0   9   0   0   0   7   0   0   0   0   6   0   0   0   0   0   0   0   0   0   0   0   1 102
   5   0   0   0   0   0   0   0   0   0   4   0   0   0   0   0   0   0   0   0   0   0   0   0   0   0   4   0   0   8   0   1 102
   3   0   7   0   0   0   0   0   4   0   0   0   0   0   0   0   0   7   0   0   0   0   0   0   0   0   0   0   0   0   0   1 102
   4   0   0   0   0   0   0   0   0   0   0  10   0   3   0   0   0   0   0   0   0   0   0   0   8   0   0   0   0   0   0   1 102
   2   0   0   0   0   0   0   0   0   6   0   0   0   0   0   0   0   0   0   0   6   0   0   0   0   0   0   0   0   8   0   1 102
   2   0   0   0   0   0   0   0   0   0   0   0   0   3   0   0   0   0   0   0   0   0   0   0   0   0   9   0   0   5   0   1 102
   7   0   0   6   4   0   0   0   0   0   0   0   5   0   8   0   0   0   9   0   4   0   0   0   4   0   0   0   0   0   0   1 102
   0   0   0   0   0   0   0   0   0   0   0   0   0   0   0   0   0   0   0   0   0   0   0   0   0   0   0   0   0   0   0   0 
